outputs/case_78.model.txt
unable_to_fulfill_contract = False
contract_or_major_commitment = False
capital_adequacy_ratio = 120
risk_to_insured_rights = False
merger_completed = False
financial_or_business_deterioration_flag = False
net_worth_ratio = 3/2
profit_loss_accelerated_deterioration = False
other_major_financial_impact = False
net_worth = 1000000
improvement_plan_approved = False
financial_improvement_plan_completed = False
improvement_plan_effective = True
payment_exceeds_limit = False
business_improvement_plan_completed = False
capital_level_severe_insufficient = False
improvement_plan_submitted = False
unable_to_pay_debt = False
capital_increase_completed = False
capital_severe_insufficient_and_no_measures = False
financial_or_business_deterioration = False
penalty_144_145 = False
violation_144_145_flag = False
capital_level = 3
capital_level_insufficient = False
violation_of_144_5 = False
capital_level_significantly_insufficient = True
supervisory_restrictions_agreed = True
violation_144_5_flag = False
penalty_144_5 = False
violation_of_144_145 = False
improvement_plan_submitted_and_approved = False
improvement_plan_accelerated_deterioration_or_no_improvement = False
penalty = False
capital_level_adequate = False
supervisory_measures_required = False